proyfinal/src/viki/013/experimentInOfficeAgust.take6.output/a84db4d5-d20d-4f7c-b864-53d38fc79ea1.als.dat
{'cnf.clauses': '118081',
 'cnf.totvars': '69608',
 'conflict literals': '65',
 'conflicts': '21',
 'decisions': '2891',
 'memused.mb': '16.18',
 'outcome': 'UNSAT',
 'propagations': '20405',
 'restarts': '1',
 'solver.msecs': 31,
 'task.msecs': 127}
