proyfinal/src/viki/013/experimentInOfficeAgust.take6.output/a84db4d5-d20d-4f7c-b864-53d38fc79ea1.als.out
Reading from standard input... Use '--help' for help.
============================[ Problem Statistics ]=============================
|                                                                             |
|  Number of variables:         69608                                         |
|  Number of clauses:          118081                                         |
|  Parse time:                   0.02 s                                       |
|                                                                             |
============================[ Search Statistics ]==============================
| Conflicts |          ORIGINAL         |          LEARNT          | Progress |
|           |    Vars  Clauses Literals |    Limit  Clauses Lit/Cl |          |
===============================================================================
===============================================================================
restarts              : 1
conflicts             : 21             (668 /sec)
decisions             : 2891           (0.00 % random) (91938 /sec)
propagations          : 20405          (648911 /sec)
conflict literals     : 65             (0.00 % deleted)
Memory used           : 16.18 MB
CPU time              : 0.031445 s

UNSATISFIABLE
